100
1000
378
377
374
373
367
365
363
357
353
348
338
336
331
322
313
308
307
306
304
299
299
298
291
291
283
283
281
279
277
272
270
270
269
263
260
257
251
247
246
243
239
238
237
228
227
208
202
197
191
186
186
180
177
176
174
171
170
170
164
151
149
146
146
146
145
143
140
139
137
116
116
115
114
113
110
102
100
99
91
87
85
82
81
81
80
73
72
69
55
53
49
47
46
44
43
39
36
34
28
23
